(set-info :status unknown)
(declare-const symbol_32 (_ BitVec 32))
(declare-const symbol_35 (_ BitVec 32))
(declare-const symbol_25 (_ BitVec 32))
(declare-const symbol_27 (_ BitVec 32))
(declare-const symbol_17 (_ BitVec 32))
(declare-const symbol_33 (_ BitVec 32))
(declare-const symbol_10 (_ BitVec 32))
(declare-const symbol_4 (_ BitVec 32))
(declare-const symbol_26 (_ BitVec 32))
(declare-const symbol_28 (_ BitVec 32))
(declare-const symbol_29 (_ BitVec 32))
(declare-const symbol_23 (_ BitVec 32))
(declare-const symbol_15 (_ BitVec 32))
(declare-const symbol_0 (_ BitVec 32))
(declare-const symbol_9 (_ BitVec 32))
(declare-const symbol_36 (_ BitVec 32))
(declare-const symbol_16 (_ BitVec 32))
(declare-const symbol_34 (_ BitVec 32))
(declare-const symbol_11 (_ BitVec 32))
(declare-const symbol_3 (_ BitVec 32))
(declare-const symbol_14 (_ BitVec 32))
(declare-const symbol_38 (_ BitVec 32))
(declare-const symbol_24 (_ BitVec 32))
(declare-const symbol_1 (_ BitVec 32))
(declare-const symbol_6 (_ BitVec 32))
(declare-const symbol_22 (_ BitVec 32))
(declare-const symbol_18 (_ BitVec 32))
(declare-const symbol_30 (_ BitVec 32))
(declare-const symbol_37 (_ BitVec 32))
(declare-const symbol_21 (_ BitVec 32))
(declare-const symbol_19 (_ BitVec 32))
(declare-const symbol_2 (_ BitVec 32))
(declare-const symbol_31 (_ BitVec 32))
(declare-const symbol_20 (_ BitVec 32))
(declare-const symbol_13 (_ BitVec 32))
(declare-const symbol_7 (_ BitVec 32))
(declare-const symbol_12 (_ BitVec 32))
(declare-const symbol_8 (_ BitVec 32))
(declare-const symbol_5 (_ BitVec 32))
(assert (not (bvslt symbol_38 symbol_1)))
(assert (not (bvslt symbol_37 symbol_1)))
(assert (not (bvslt symbol_36 symbol_1)))
(assert (not (bvslt symbol_35 symbol_1)))
(assert (not (bvslt symbol_34 symbol_1)))
(assert (not (bvslt symbol_33 symbol_1)))
(assert (not (bvslt symbol_32 symbol_1)))
(assert (not (bvslt symbol_31 symbol_1)))
(assert (not (bvslt symbol_30 symbol_1)))
(assert (not (bvslt symbol_29 symbol_1)))
(assert (not (bvslt symbol_28 symbol_1)))
(assert (not (bvslt symbol_27 symbol_1)))
(assert (not (bvslt symbol_26 symbol_1)))
(assert (not (bvslt symbol_25 symbol_1)))
(assert (not (bvslt symbol_24 symbol_1)))
(assert (not (bvslt symbol_23 symbol_1)))
(assert (not (bvslt symbol_22 symbol_1)))
(assert (not (bvslt symbol_21 symbol_1)))
(assert (not (bvslt symbol_20 symbol_1)))
(assert (not (bvslt symbol_19 symbol_1)))
(assert (not (bvslt symbol_18 symbol_1)))
(assert (not (bvslt symbol_17 symbol_1)))
(assert (not (bvslt symbol_16 symbol_1)))
(assert (not (bvslt symbol_15 symbol_1)))
(assert (not (bvslt symbol_14 symbol_1)))
(assert (not (bvslt symbol_13 symbol_1)))
(assert (not (bvslt symbol_12 symbol_1)))
(assert (not (bvslt symbol_11 symbol_1)))
(assert (not (bvslt symbol_10 symbol_1)))
(assert (not (bvslt symbol_9 symbol_1)))
(assert (not (bvslt symbol_8 symbol_1)))
(assert (not (bvslt symbol_7 symbol_1)))
(assert (not (bvslt symbol_6 symbol_1)))
(assert (not (bvslt symbol_5 symbol_1)))
(assert (not (bvslt symbol_4 symbol_1)))
(assert (not (bvslt symbol_3 symbol_1)))
(assert (not (bvslt symbol_2 symbol_1)))
(assert (bvslt symbol_1 symbol_0))
(check-sat)